
Gurobi 9.5.2 (win64) logging started Mon Mar 27 20:27:50 2023

Set parameter LogFile to value "2023-03-27_20hr-25min-09sec/Nodes40_Arcs45_LocNodes30/Formulation-2Instance-1.log"
Set parameter TimeLimit to value 600
Set parameter IntFeasTol to value 1e-09
Set parameter DualReductions to value 0
Set parameter NonConvex to value 2
Gurobi Optimizer version 9.5.2 build v9.5.2rc0 (win64)
Thread count: 4 physical cores, 8 logical processors, using up to 8 threads
Optimize a model with 156 rows, 270 columns and 550 nonzeros
Model fingerprint: 0x57e5544f
Model has 85 quadratic objective terms
Model has 85 SOS constraints
Variable types: 240 continuous, 30 integer (30 binary)
Coefficient statistics:
  Matrix range     [2e-02, 2e+02]
  Objective range  [2e-02, 1e+03]
  QObjective range [4e-02, 8e+00]
  Bounds range     [1e+00, 1e+00]
  RHS range        [2e-02, 3e+03]
Presolve removed 35 rows and 44 columns
Presolve time: 0.00s
Presolved: 121 rows, 226 columns, 434 nonzeros
Presolved model has 67 SOS constraint(s)
Presolved model has 67 quadratic objective terms
Variable types: 196 continuous, 30 integer (30 binary)

Root relaxation: objective 8.787617e+05, 278 iterations, 0.00 seconds (0.00 work units)

    Nodes    |    Current Node    |     Objective Bounds      |     Work
 Expl Unexpl |  Obj  Depth IntInf | Incumbent    BestBd   Gap | It/Node Time

     0     0 878761.726    0   10          - 878761.726      -     -    0s
H    0     0                    877747.19765 878761.726  0.12%     -    0s
     0     0 878624.811    0    9 877747.198 878624.811  0.10%     -    0s
H    0     0                    878326.03955 878624.811  0.03%     -    0s
     0     0 878333.860    0    8 878326.040 878333.860  0.00%     -    0s

Cutting planes:
  Implied bound: 1
  MIR: 1
  Flow cover: 2

Explored 1 nodes (293 simplex iterations) in 0.07 seconds (0.01 work units)
Thread count was 8 (of 8 available processors)

Solution count 2: 878326 877747 

Optimal solution found (tolerance 1.00e-04)
Best objective 8.783260395526e+05, best bound 8.783338598642e+05, gap 0.0009%

User-callback calls 276, time in user-callback 0.00 sec
